NAME : gr137.81818.tour
COMMENT : Cost = 0_81818
COMMENT : Found by LKH [Keld Helsgaun] Thu Nov 16 16:26:26 2017
TYPE : TOUR
DIMENSION : 141
TOUR_SECTION
1
2
141
11
140
5
18
19
20
21
22
23
25
24
26
27
28
52
53
54
55
56
57
61
58
59
60
62
63
64
65
66
67
68
69
70
92
97
98
99
100
101
104
103
102
126
125
117
116
114
115
105
106
107
108
109
110
111
112
113
118
119
120
121
122
123
124
127
128
129
130
131
132
133
134
135
83
84
85
136
137
96
94
95
93
91
90
89
71
88
87
82
86
81
80
79
78
77
76
75
74
51
73
72
50
49
44
43
42
48
47
46
45
16
17
15
14
13
12
41
36
37
38
39
40
35
34
33
32
31
30
29
10
8
9
7
6
139
4
138
3
-1
EOF
